
  17    4
  10   10   10   10

   0   0   0   0   0   5 2 3 6 7 9 
   4  10  10  10  10   2 8 4 
   1  10  10  10  10   4 16 14 10 8 
   2  10  10  10  10   1 5 
  10  10  10  10  10   5 16 15 14 11 10 
  10  10  10  10  10   4 15 14 13 12 
  10  10  10  10  10   4 15 14 13 12 
   1  10  10  10  10   3 15 13 11 
   8  10  10  10  10   2 14 10 
   8  10  10  10  10   2 13 12 
   5  10  10  10  10   1 12 
   9  10  10  10  10   1 17
   4  10  10  10  10   1 17
   5  10  10  10  10   1 17
   7  10  10  10  10   1 17
   4  10  10  10  10   1 17
   0   0   0   0   0   0 
